SCIP Status        : solving was interrupted [time limit reached]
Total Time         :    3600.01
  solving          :    3600.00
  presolving       :       0.09 (included in solving)
  reading          :       0.00
  copying          :       0.36 (85 #copies) (minimal 0.00, maximal 0.01, average 0.00)
Original Problem   :
  Problem name     : sfacloc1_4_80
  Variables        : 355 (62 binary, 0 integer, 0 implicit integer, 293 continuous)
  Constraints      : 2234 initial, 2234 maximal
  Objective        : minimize, 15 non-zeros (abs.min = 1, abs.max = 1)
Presolved Problem  :
  Problem name     : t_sfacloc1_4_80
  Variables        : 415 (62 binary, 0 integer, 0 implicit integer, 353 continuous)
  Constraints      : 1941 initial, 1957 maximal
  Objective        : minimize, 15 non-zeros (abs.min = 1, abs.max = 1)
  Nonzeros         : 6933 constraint, 828 clique table
Presolvers         :   ExecTime  SetupTime  Calls  FixedVars   AggrVars   ChgTypes  ChgBounds   AddHoles    DelCons    AddCons   ChgSides   ChgCoefs
  boundshift       :       0.00       0.00      0          0          0          0          0          0          0          0          0          0
  convertinttobin  :       0.00       0.00      0          0          0          0          0          0          0          0          0          0
  domcol           :       0.00       0.00      1          0          0          0          0          0          0          0          0          0
  dualagg          :       0.00       0.00      0          0          0          0          0          0          0          0          0          0
  dualcomp         :       0.00       0.00      1          0          0          0          0          0          0          0          0          0
  dualinfer        :       0.00       0.00      0          0          0          0          0          0          0          0          0          0
  dualsparsify     :       0.00       0.00      1          0          0          0          0          0          0          0          0          0
  gateextraction   :       0.00       0.00      1          0          0          0          0          0          0          0          0          0
  implics          :       0.00       0.00      3          0          0          0          0          0          0          0          0          0
  inttobinary      :       0.00       0.00      0          0          0          0          0          0          0          0          0          0
  qpkktref         :       0.00       0.00      0          0          0          0          0          0          0          0          0          0
  redvub           :       0.00       0.00      0          0          0          0          0          0          0          0          0          0
  sparsify         :       0.00       0.00      1          0          0          0          0          0          0          0          0          0
  stuffing         :       0.00       0.00      0          0          0          0          0          0          0          0          0          0
  trivial          :       0.00       0.00      4          0          0          0          0          0          0          0          0          0
  tworowbnd        :       0.00       0.00      0          0          0          0          0          0          0          0          0          0
  dualfix          :       0.00       0.00      4          0          0          0          0          0          0          0          0          0
  genvbounds       :       0.00       0.00      0          0          0          0          0          0          0          0          0          0
  probing          :       0.01       0.00      1          0          0          0          0          0          0          0          0          0
  pseudoobj        :       0.00       0.00      0          0          0          0          0          0          0          0          0          0
  symmetry         :       0.00       0.00      1          0          0          0          0          0          0          0          0          0
  vbounds          :       0.00       0.00      1          0          0          0          0          0          0          0          0          0
  setppc           :       0.00       0.00      3          0          0          0          0          0          0          0          0          0
  linear           :       0.06       0.00      7          0         75          0         15          0        293          0        218          0
  logicor          :       0.00       0.00      3          0          0          0          0          0          0          0          0          0
  bounddisjunction :       0.00       0.00      0          0          0          0          0          0          0          0          0          0
  nonlinear        :       0.01       0.00      8          0          0          0          0          0          0          0          0          0
  benders          :       0.00       0.00      0          0          0          0          0          0          0          0          0          0
  components       :       0.00       0.00      1          0          0          0          0          0          0          0          0          0
  root node        :          -          -      -          0          -          -        138          -          -          -          -          -
Constraints        :     Number  MaxNumber  #Separate #Propagate    #EnfoLP    #EnfoRelax  #EnfoPS    #Check   #ResProp    Cutoffs    DomReds       Cuts    Applied      Conss   Children
  benderslp        :          0          0          0          0     222602          0          0     180059          0          0          0          0          0          0          0
  integral         :          0          0          0          0     222602          0          0     180059          0          0       1211          0          0          4      65784
  setppc           :        170+       171          7     572799          0          0          0     180055         33          5      42011          0          0          0          0
  linear           :        261        261          7     572808          0          0          0     179157          9        915     814047          0          0          0          0
  logicor          :       1495       1495          7      51115          0          0          0     175928         13          2      63331          0          0          0          0
  bounddisjunction :          0+        15          0      24233          0          0          0          0          0          1        444          0          0          0          0
  nonlinear        :         15         15     565059     571890     189345          0          0     175928          0          0     966971    1738843    1727946          0     351516
  benders          :          0          0          0          0          0          0          0         24          0          0          0          0          0          0          0
  countsols        :          0          0          0          0          0          0          0         24          0          0          0          0          0          0          0
  components       :          0          0          0          0          0          0          0          0          0          0          0          0          0          0          0
Constraint Timings :  TotalTime  SetupTime   Separate  Propagate     EnfoLP     EnfoPS     EnfoRelax   Check    ResProp    SB-Prop
  benderslp        :       0.09       0.00       0.00       0.00       0.08       0.00       0.00       0.01       0.00       0.00
  integral         :      10.65       0.00       0.00       0.00      10.63       0.00       0.00       0.02       0.00       0.00
  setppc           :       0.89       0.00       0.00       0.28       0.00       0.00       0.00       0.49       0.00       0.12
  linear           :       3.35       0.00       0.00       2.64       0.00       0.00       0.00       0.64       0.00       0.07
  logicor          :       4.24       0.00       0.00       1.86       0.00       0.00       0.00       2.08       0.00       0.30
  bounddisjunction :       0.05       0.00       0.00       0.05       0.00       0.00       0.00       0.00       0.00       0.01
  nonlinear        :    2357.23       0.00    1709.39      10.76     631.20       0.00       0.00       5.52       0.00       0.37
  benders          :       0.00       0.00       0.00       0.00       0.00       0.00       0.00       0.00       0.00       0.00
  countsols        :       0.00       0.00       0.00       0.00       0.00       0.00       0.00       0.00       0.00       0.00
  components       :       0.07       0.00       0.00       0.07       0.00       0.00       0.00       0.00       0.00       0.00
Propagators        : #Propagate   #ResProp    Cutoffs    DomReds
  dualfix          :          5          0          0          0
  genvbounds       :     218528          0          2     213418
  nlobbt           :          0          0          0          0
  obbt             :          2          0          0          1
  probing          :          0          0          0          0
  pseudoobj        :     763221          0          0     169995
  redcost          :     862611          0          0          0
  rootredcost      :         10          0          0         68
  symmetry         :          0          0          0          0
  vbounds          :      90715          0          0          0
Propagator Timings :  TotalTime  SetupTime   Presolve  Propagate    ResProp    SB-Prop
  dualfix          :       0.00       0.00       0.00       0.00       0.00       0.00
  genvbounds       :       1.24       0.00       0.00       1.24       0.00       0.00
  nlobbt           :       0.00       0.00       0.00       0.00       0.00       0.00
  obbt             :       0.51       0.00       0.00       0.51       0.00       0.00
  probing          :       0.01       0.00       0.01       0.00       0.00       0.00
  pseudoobj        :       1.28       0.00       0.00       1.28       0.00       0.00
  redcost          :       2.16       0.00       0.00       2.16       0.00       0.00
  rootredcost      :       0.22       0.00       0.00       0.22       0.00       0.00
  symmetry         :       0.08       0.00       0.00       0.07       0.00       0.00
  vbounds          :       0.29       0.00       0.00       0.28       0.00       0.01
Conflict Analysis  :       Time      Calls    Success    DomReds  Conflicts   Literals    Reconvs ReconvLits   Dualrays   Nonzeros   LP Iters   (pool size: [10000,10000])
  propagation      :       0.00         15         15          -         24        4.3          0        0.0          -          -          -
  infeasible LP    :       0.00          0          0          -          0        0.0          0        0.0          0        0.0          0
  bound exceed. LP :       0.39       2798          0          -          0        0.0          0        0.0          0        0.0          0
  strong branching :       0.00          0          0          -          0        0.0          0        0.0          -          -          0
  pseudo solution  :       0.00          0          0          -          0        0.0          0        0.0          -          -          -
  applied globally :       0.00          -          -          0         17        2.6          -          -          0          -          -
  applied locally  :          -          -          -          0          0        0.0          -          -          0          -          -
Separators         :   ExecTime  SetupTime      Calls  RootCalls    Cutoffs    DomReds  FoundCuts ViaPoolAdd  DirectAdd    Applied ViaPoolApp  DirectApp      Conss
  cut pool         :       0.01          -       5920          7          -          -        625        231          -          -          -          -          -    (maximal pool size:         72)
  aggregation      :       0.17       0.00        589          2          0          0          9          0          7          5          0          5          0
  > cmir           :          -          -          -          -          -          -          -          0          5          3          0          3          -
  > flowcover      :          -          -          -          -          -          -          -          0          2          2          0          2          -
  > knapsackcover  :          -          -          -          -          -          -          -          0          0          0          0          0          -
  cgmip            :       0.00       0.00          0          0          0          0          0          0          0          0          0          0          0
  clique           :       0.00       0.00          2          2          0          0          0          0          0          0          0          0          0
  closecuts        :       0.00       0.00          0          0          0          0          0          0          0          0          0          0          0
  convexproj       :       0.00       0.00          0          0          0          0          0          0          0          0          0          0          0
  disjunctive      :       0.00       0.00          0          0          0          0          0          0          0          0          0          0          0
  eccuts           :       0.00       0.00          0          0          0          0          0          0          0          0          0          0          0
  gauge            :       0.00       0.00          0          0          0          0          0          0          0          0          0          0          0
  gomory           :       3.97       0.00        586          2          0          0       4790        157       4299        154         57         97          0
  > gomorymi       :          -          -          -          -          -          -          -         34       4150        105         11         94          -
  > strongcg       :          -          -          -          -          -          -          -        123        149         49         46          3          -
  impliedbounds    :       0.01       0.00        589          2          0          0          0          0          0          0          0          0          0
  interminor       :       0.00       0.00          0          0          0          0          0          0          0          0          0          0          0
  intobj           :       0.00       0.00          0          0          0          0          0          0          0          0          0          0          0
  mcf              :       0.00       0.00          1          1          0          0          0          0          0          0          0          0          0
  minor            :       0.00       0.00          0          0          0          0          0          0          0          0          0          0          0
  mixing           :       0.06       0.00       4802          7          0          0          0          0          0          0          0          0          0
  oddcycle         :       0.00       0.00          0          0          0          0          0          0          0          0          0          0          0
  rapidlearning    :       0.01       0.00          0          0          0          0          0          0          0          0          0          0          0
  rlt              :       0.00       0.00          7          7          0          0          0          0          0          0          0          0          0
  zerohalf         :       0.09       0.00        586          2          0          0        170         74         38         85         54         31          0
Cutselectors       :   ExecTime  SetupTime      Calls  RootCalls   Selected     Forced   Filtered  RootSelec   RootForc   RootFilt 
  hybrid           :       0.96       0.00     417424          4    1706074          0      15148         49          0          0
Pricers            :   ExecTime  SetupTime      Calls       Vars
  problem variables:       0.00          -          0          0
Branching Rules    :   ExecTime  SetupTime   BranchLP  BranchExt   BranchPS    Cutoffs    DomReds       Cuts      Conss   Children
  allfullstrong    :       0.00       0.00          0          0          0          0          0          0          0          0
  cloud            :       0.00       0.00          0          0          0          0          0          0          0          0
  distribution     :       0.00       0.00          0          0          0          0          0          0          0          0
  fullstrong       :       0.00       0.00          0          0          0          0          0          0          0          0
  inference        :       0.00       0.00          0          0          0          0          0          0          0          0
  leastinf         :       0.00       0.00          0          0          0          0          0          0          0          0
  lookahead        :       0.00       0.00          0          0          0          0          0          0          0          0
  mostinf          :       0.00       0.00          0          0          0          0          0          0          0          0
  multaggr         :       0.00       0.00          0          0          0          0          0          0          0          0
  nodereopt        :       0.00       0.00          0          0          0          0          0          0          0          0
  pscost           :       0.00       0.00          0          0          0          0          0          0          0          0
  random           :       0.00       0.00          0          0          0          0          0          0          0          0
  relpscost        :      10.55       0.00      33257          0          0          0       1211          0          4      65784
  vanillafullstrong:       0.00       0.00          0          0          0          0          0          0          0          0
Primal Heuristics  :   ExecTime  SetupTime      Calls      Found       Best
  LP solutions     :       0.00          -          -          0          0
  relax solutions  :       0.00          -          -          0          0
  pseudo solutions :       0.00          -          -          0          0
  strong branching :       0.40          -          -          0          0
  actconsdiving    :       0.00       0.00          0          0          0
  adaptivediving   :       1.06       0.00       4256          0          0
  alns             :       0.22       0.00         17          0          0
  bound            :       0.00       0.00          0          0          0
  clique           :       0.03       0.00          1          0          0
  coefdiving       :       0.00       0.00          0          0          0
  completesol      :       0.00       0.00          0          0          0
  conflictdiving   :       1.72       0.00      15869          0          0
  crossover        :     133.78       0.00          9          4          0
  dins             :       0.00       0.00          0          0          0
  distributiondivin:       2.56       0.00        847          0          0
  dps              :       0.00       0.00          0          0          0
  dualval          :       0.00       0.00          0          0          0
  farkasdiving     :       0.01       0.00          0          0          0
  feaspump         :       0.02       0.00         10          0          0
  fixandinfer      :       0.00       0.00          0          0          0
  fracdiving       :       1.76       0.00      15874          0          0
  gins             :      32.77       0.00         14          5          2
  guideddiving     :       1.82       0.00      15831          0          0
  indicator        :       0.20       0.00          0          0          0
  indicatordiving  :       0.00       0.00          0          0          0
  intdiving        :       0.00       0.00          0          0          0
  intshifting      :       0.07       0.00         57          0          0
  linesearchdiving :       1.98       0.00      15862          0          0
  localbranching   :       0.00       0.00          0          0          0
  locks            :       0.00       0.00          1          0          0
  lpface           :       0.11       0.00          0          0          0
  mpec             :      94.63       0.00         11          1          1
  multistart       :       0.00       0.00          0          0          0
  mutation         :       0.00       0.00          0          0          0
  nlpdiving        :       3.84       0.00          9          0          0
  objpscostdiving  :       0.88       0.00        424          0          0
  octane           :       0.00       0.00          0          0          0
  ofins            :       0.04       0.00          0          0          0
  oneopt           :       0.09       0.00         12          0          0
  padm             :       0.00       0.00          0          0          0
  proximity        :       0.00       0.00          0          0          0
  pscostdiving     :       1.11       0.00        848          0          0
  randrounding     :       0.25       0.00       4126          0          0
  rens             :       5.16       0.00          1          0          0
  reoptsols        :       0.00       0.00          0          0          0
  repair           :       0.00       0.00          0          0          0
  rins             :      99.04       0.00         42          5          3
  rootsoldiving    :       1.50       0.00        425          0          0
  rounding         :       0.34       0.00       4143          0          0
  shiftandpropagate:       0.00       0.00          1          0          0
  shifting         :       0.31       0.00       1290          0          0
  simplerounding   :       0.21       0.00          0          0          0
  subnlp           :      37.36       0.00         44          6          6
  trivial          :       0.00       0.00          2          0          0
  trivialnegation  :       0.00       0.00          0          0          0
  trustregion      :       0.00       0.00          0          0          0
  trysol           :       0.11       0.00          1          1          1
  twoopt           :       0.00       0.00          0          0          0
  undercover       :       0.00       0.00          1          0          0
  vbounds          :       0.00       0.00          0          0          0
  veclendiving     :       2.64       0.00      15810          0          0
  zeroobj          :       0.00       0.00          0          0          0
  zirounding       :       0.10       0.00       1000          0          0
  other solutions  :          -          -          -          0          -
Expressions        :   #IntEval  IntEvalTi   #RevProp  RevPropTi    DomReds    Cutoffs  #Estimate  EstimTime  Branching  #Simplify SimplifyTi Simplified
  pow              :          0       0.00          0       0.00          0          0          0       0.00          0          0       0.00          0
  prod             :    8924688       1.70     806077       0.52          0          0   61885477    2189.72   16457310        240       0.00        120
  sum              :    1115586       0.48    1115376       0.92     278353          0         15       0.00          0        225       0.00        150
  var              :    2867127       0.17          0       0.00          0          0          0       0.00          0        555       0.00         60
  varidx           :          0       0.00          0       0.00          0          0          0       0.00          0          0       0.00          0
Nlhdlrs            :    Detects  DetectAll DetectTime   #IntEval  IntEvalTi   #RevProp  RevPropTi    DomReds    Cutoffs   #Enforce   EnfoTime       Cuts  Branching
  soc              :          0          0       0.00          0       0.00          0       0.00          0          0          0       0.00          0          0
  convex           :          0          0       0.00          0       0.00          0       0.00          0          0          0       0.00          0          0
  concave          :          0          0       0.00          0       0.00          0       0.00          0          0          0       0.00          0          0
  signomial        :          0          0       0.00          0       0.00          0       0.00          0          0          0       0.00          0          0
  quotient         :          0          0       0.00          0       0.00          0       0.00          0          0          0       0.00          0          0
  quadratic        :          0          0       0.00          0       0.00          0       0.00          0          0          0       0.00          0          0
  default          :        345       3105       0.00   10040934       2.75    1922083       2.81     278353          0   61885372    2248.74    1738843          0
  bilinear         :          0          0       0.00          0       0.00          0       0.00          0          0          0       0.00          0          0
  perspective      :          0          0       0.00          0       0.00          0       0.00          0          0          0       0.00          0          0
LP                 :       Time      Calls Iterations  Iter/call   Iter/sec  Time-0-It Calls-0-It    ItLimit
  primal LP        :     104.07      89125          0       0.00       0.00     104.06      89125
  dual LP          :     552.48     642948    7338364      13.22   13282.63      51.23      87806
  lex dual LP      :       0.00          0          0       0.00          -
  barrier LP       :       0.00          0          0       0.00          -       0.00          0
  resolve instable :       0.00          0          0       0.00          -
  diving/probing LP:       5.91       3397      16267       4.79    2753.54
  strong branching :       5.19       4121      53950      13.09   10388.89          -          -        531
    (at root node) :          -          0          0       0.00          -
  conflict analysis:       0.00          0          0       0.00          -
NLP relaxation     :
  solve time       :       3.83 (9 calls)
  convexity        :  nonconvex (1926 linear rows, 0 convex ineq., 0 nonconvex ineq., 15 nonlinear eq. or two-sided ineq.)
NLP Solvers        :  #Problems  ProblemTi    #Solves  SolveTime      #Iter  Time/Iter      #Okay #TimeLimit #IterLimit #LObjLimit #Interrupt  #NumError #EvalError  #OutOfMem #LicenseEr #OtherTerm   #GlobOpt    #LocOpt  #Feasible #LocInfeas #GlobInfea #Unbounded   #Unknown
  ipopt            :         61       0.61         78     134.96      13828       0.01         75          0          3          0          0          0          0          0          0          0          0         35         16         18          0          0          9
B&B Tree           :
  number of runs   :          1
  nodes            :     211724 (208650 internal, 3074 leaves)
  feasible leaves  :          0
  infeas. leaves   :        135
  objective leaves :       2939
  nodes (total)    :     211724 (208650 internal, 3074 leaves)
  nodes left       :     202276
  max depth        :         50
  max depth (total):         50
  backtracks       :      26186 (12.4%)
  early backtracks :          0 (0.0%)
  nodes exc. ref.  :          0 (0.0%)
  delayed cutoffs  :          0
  repropagations   :         53 (15 domain reductions, 0 cutoffs)
  avg switch length:       3.58
  switching time   :     118.69
Root Node          :
  First LP value   : +0.00000000000000e+00
  First LP Iters   :        132 (24122.81 Iter/sec)
  First LP Time    :       0.01
  Final Dual Bound : +0.00000000000000e+00
  Final Root Iters :        238
  Root LP Estimate : +4.65705705697585e+00
Solution           :
  Solutions found  :         22 (13 improvements)
  First Solution   : +8.99821042541907e+01   (in run 1, after 1 nodes, 0.16 seconds, depth 24, found by <trysol>)
  Gap First Sol.   :   infinite
  Gap Last Sol.    :   23275.06 %
  Primal Bound     : +8.42105115002657e+00   (in run 1, after 207721 nodes, 3431.65 seconds, depth 25, found by <rins>)
  Dual Bound       : +3.60257943516382e-02
  Gap              :   23275.06 %
Integrals          :      Total       Avg%
  primal-dual      :  359183.29      99.77
  primal-ref       :          -          - (not evaluated)
  dual-ref         :          -          - (not evaluated)
